
Gurobi 11.0.3 (linux64) logging started Fri Nov 22 14:27:11 2024

Set parameter LogFile to value "/home/yihong/Coding/OR_SUC/SUC_results_bigM100000_thread4/case24_ieee_rts_theta0.5_epsilon0.025_gurobi_seed630000_num_gen100_N_WDR100_load_scaling_factor1_proposed_T12quadra_cost.txt"
Set parameter TimeLimit to value 3600
Gurobi Optimizer version 11.0.3 build v11.0.3rc0 (linux64 - "Ubuntu 20.04.6 LTS")

CPU model: AMD EPYC 7532 32-Core Processor, instruction set [SSE2|AVX|AVX2]
Thread count: 64 physical cores, 128 logical processors, using up to 4 threads

Optimize a model with 25722 rows, 14981 columns and 353498 nonzeros
Model fingerprint: 0x7e26a664
Model has 1200 quadratic constraints
Variable types: 13781 continuous, 1200 integer (1200 binary)
Coefficient statistics:
  Matrix range     [3e-04, 2e+03]
  QMatrix range    [2e-03, 8e-03]
  QLMatrix range   [3e-01, 6e+01]
  Objective range  [1e+00, 1e+00]
  Bounds range     [1e+00, 1e+00]
  RHS range        [1e+00, 9e+03]
Presolve removed 20932 rows and 6606 columns
Presolve time: 0.12s
Presolved: 4790 rows, 8375 columns, 32850 nonzeros
Presolved model has 1200 quadratic constraint(s)
Variable types: 7175 continuous, 1200 integer (1200 binary)

Root relaxation: objective 3.600223e+04, 3723 iterations, 0.06 seconds (0.07 work units)

    Nodes    |    Current Node    |     Objective Bounds      |     Work
 Expl Unexpl |  Obj  Depth IntInf | Incumbent    BestBd   Gap | It/Node Time

     0     0 36002.2287    0   12          - 36002.2287      -     -    0s
     0     0 289836.863    0  236          - 289836.863      -     -    0s
     0     0 382501.735    0  140          - 382501.735      -     -    0s
     0     0 382504.463    0  140          - 382504.463      -     -    0s
     0     0 382577.920    0  115          - 382577.920      -     -    0s
     0     0 382579.429    0  115          - 382579.429      -     -    0s
     0     0 382579.546    0  115          - 382579.546      -     -    0s
     0     2 382579.546    0  115          - 382579.546      -     -    0s
H  182   195                    382688.21096 382583.199  0.03%   9.8    1s
*  182   195              58    382688.21096 382583.199  0.03%   9.8    1s

Cutting planes:
  Gomory: 69
  Implied bound: 231
  MIR: 23
  Flow cover: 59
  RLT: 1

Explored 200 nodes (11631 simplex iterations) in 1.58 seconds (1.67 work units)
Thread count was 4 (of 128 available processors)

Solution count 2: 382688 382688 

Optimal solution found (tolerance 1.00e-03)
Warning: max constraint violation (4.7386e-07) exceeds tolerance
Best objective 3.826882109618e+05, best bound 3.825831985861e+05, gap 0.0274%
